Gurobi Optimizer version 10.0.3 build v10.0.3rc0 (win64)

CPU model: 13th Gen Intel(R) Core(TM) i7-13700T, instruction set [SSE2|AVX|AVX2]
Thread count: 16 physical cores, 24 logical processors, using up to 24 threads

Optimize a model with 12464235 rows, 1603129 columns and 25601585 nonzeros
Model fingerprint: 0xe72eb1ba
Variable types: 0 continuous, 1603129 integer (173400 binary)
Coefficient statistics:
  Matrix range     [1e+00, 6e+02]
  Objective range  [7e+00, 3e+02]
  Bounds range     [1e+00, 1e+00]
  RHS range        [1e+00, 6e+02]
Presolve removed 236301 rows and 1246199 columns (presolve time = 8s) ...
Presolve removed 253442 rows and 1246200 columns (presolve time = 10s) ...
Presolve removed 253442 rows and 1246200 columns (presolve time = 16s) ...
Presolve removed 253443 rows and 1246200 columns (presolve time = 22s) ...
Presolve removed 253443 rows and 1246200 columns (presolve time = 29s) ...
Presolve removed 253443 rows and 1246200 columns (presolve time = 35s) ...
Presolve removed 253443 rows and 1246200 columns (presolve time = 38s) ...
Presolve removed 414051 rows and 1246200 columns (presolve time = 44s) ...
Presolve removed 414051 rows and 1246200 columns (presolve time = 50s) ...
Presolve removed 414051 rows and 1246200 columns (presolve time = 56s) ...
Presolve removed 414051 rows and 1246207 columns (presolve time = 69s) ...
Presolve removed 414152 rows and 1246308 columns (presolve time = 76s) ...
Presolve removed 414152 rows and 1246308 columns (presolve time = 82s) ...
Presolve removed 414152 rows and 1246308 columns (presolve time = 88s) ...
Presolve removed 414152 rows and 1246308 columns (presolve time = 93s) ...
Presolve removed 414152 rows and 1246308 columns (presolve time = 95s) ...
Presolve removed 414152 rows and 1246308 columns (presolve time = 100s) ...
Presolve removed 414152 rows and 1246308 columns (presolve time = 105s) ...
Presolve removed 414152 rows and 1246308 columns (presolve time = 111s) ...
Presolve removed 414152 rows and 1246308 columns (presolve time = 115s) ...
Presolve removed 414152 rows and 1246308 columns (presolve time = 120s) ...
Presolve removed 414152 rows and 1246308 columns (presolve time = 125s) ...
Presolve removed 414152 rows and 1246308 columns (presolve time = 130s) ...
Presolve removed 414152 rows and 1246308 columns (presolve time = 135s) ...
Presolve removed 414152 rows and 1246308 columns (presolve time = 140s) ...
Presolve removed 414152 rows and 1246308 columns (presolve time = 145s) ...
Presolve removed 414152 rows and 1246308 columns (presolve time = 150s) ...
Presolve removed 414152 rows and 1246308 columns (presolve time = 155s) ...
Presolve removed 414152 rows and 1246308 columns (presolve time = 160s) ...
Presolve removed 414152 rows and 1246308 columns (presolve time = 165s) ...
Presolve removed 414152 rows and 1246308 columns (presolve time = 170s) ...
Presolve removed 414152 rows and 1246308 columns (presolve time = 175s) ...
Presolve removed 414152 rows and 1246308 columns (presolve time = 180s) ...
Presolve removed 414152 rows and 1246308 columns (presolve time = 185s) ...
Presolve removed 414152 rows and 1246308 columns (presolve time = 190s) ...
Presolve removed 414152 rows and 1246308 columns (presolve time = 196s) ...
Presolve removed 414152 rows and 1246308 columns (presolve time = 200s) ...
Presolve removed 414152 rows and 1246308 columns (presolve time = 205s) ...
Presolve removed 414152 rows and 1246308 columns (presolve time = 210s) ...
Presolve removed 414152 rows and 1246308 columns (presolve time = 215s) ...
Presolve removed 414152 rows and 1246308 columns (presolve time = 220s) ...
Presolve removed 414152 rows and 1246308 columns (presolve time = 225s) ...
Presolve removed 414152 rows and 1246308 columns (presolve time = 230s) ...
Presolve removed 414152 rows and 1246308 columns (presolve time = 235s) ...
Presolve removed 414152 rows and 1246308 columns (presolve time = 240s) ...
Presolve removed 414152 rows and 1246308 columns (presolve time = 245s) ...
Presolve removed 414152 rows and 1246308 columns (presolve time = 250s) ...
Presolve removed 414152 rows and 1246308 columns (presolve time = 255s) ...
Presolve removed 414152 rows and 1246308 columns (presolve time = 260s) ...
Presolve removed 414152 rows and 1246308 columns (presolve time = 265s) ...
Presolve removed 414152 rows and 1246308 columns (presolve time = 270s) ...
Presolve removed 414152 rows and 1246308 columns (presolve time = 275s) ...
Presolve removed 414152 rows and 1246308 columns (presolve time = 280s) ...
Presolve removed 414152 rows and 1246308 columns (presolve time = 285s) ...
Presolve removed 414152 rows and 1246308 columns (presolve time = 290s) ...
Presolve removed 414152 rows and 1246308 columns (presolve time = 295s) ...
Presolve removed 414152 rows and 1246308 columns (presolve time = 300s) ...
Presolve removed 414152 rows and 1246308 columns (presolve time = 305s) ...
Presolve removed 414152 rows and 1246308 columns (presolve time = 310s) ...
Presolve removed 414152 rows and 1246308 columns (presolve time = 315s) ...
Presolve removed 414152 rows and 1246308 columns (presolve time = 320s) ...
Presolve removed 414152 rows and 1246308 columns (presolve time = 325s) ...
Presolve removed 414152 rows and 1246308 columns (presolve time = 330s) ...
Presolve removed 414152 rows and 1246308 columns (presolve time = 336s) ...
Presolve removed 414152 rows and 1246308 columns (presolve time = 340s) ...
Presolve removed 414152 rows and 1246308 columns (presolve time = 345s) ...
Presolve removed 414152 rows and 1246308 columns (presolve time = 350s) ...
Presolve removed 414152 rows and 1246308 columns (presolve time = 355s) ...
Presolve removed 414152 rows and 1246308 columns (presolve time = 360s) ...
Presolve removed 414152 rows and 1246308 columns (presolve time = 365s) ...
Presolve removed 414152 rows and 1246308 columns (presolve time = 370s) ...
Presolve removed 414152 rows and 1246308 columns (presolve time = 375s) ...
Presolve removed 414152 rows and 1246308 columns (presolve time = 380s) ...
Presolve removed 414152 rows and 1246308 columns (presolve time = 386s) ...
Presolve removed 414152 rows and 1246308 columns (presolve time = 391s) ...
Presolve removed 414152 rows and 1246308 columns (presolve time = 395s) ...
Presolve removed 414152 rows and 1287866 columns (presolve time = 401s) ...
Presolve removed 414152 rows and 1287866 columns (presolve time = 405s) ...
Presolve removed 414152 rows and 1287866 columns (presolve time = 410s) ...
Presolve removed 414152 rows and 1287866 columns (presolve time = 415s) ...
Presolve removed 414152 rows and 1287866 columns (presolve time = 420s) ...
Presolve removed 414152 rows and 1287866 columns (presolve time = 425s) ...
Presolve removed 414152 rows and 1287866 columns (presolve time = 430s) ...
Presolve removed 1812636 rows and 1287866 columns (presolve time = 435s) ...
Presolve removed 1812636 rows and 1287866 columns (presolve time = 441s) ...
Presolve removed 1812636 rows and 1287866 columns (presolve time = 448s) ...
Presolve removed 1812636 rows and 1287866 columns (presolve time = 455s) ...
Presolve removed 1812636 rows and 1287866 columns (presolve time = 460s) ...
Presolve removed 1812636 rows and 1287866 columns (presolve time = 463s) ...
Presolve removed 1812974 rows and 1287866 columns (presolve time = 471s) ...
Presolve removed 1812974 rows and 1287866 columns (presolve time = 476s) ...
Presolve removed 1812974 rows and 1287866 columns (presolve time = 486s) ...
Presolve removed 1813181 rows and 1288073 columns (presolve time = 495s) ...
Presolve removed 1813181 rows and 1288073 columns (presolve time = 501s) ...
Presolve removed 1813181 rows and 1288129 columns (presolve time = 505s) ...
Presolve removed 1813181 rows and 1288129 columns (presolve time = 510s) ...
Presolve removed 1813181 rows and 1288129 columns (presolve time = 515s) ...
Presolve removed 1813181 rows and 1288129 columns (presolve time = 521s) ...
Presolve removed 1813181 rows and 1288129 columns (presolve time = 525s) ...
Presolve removed 1813181 rows and 1288129 columns (presolve time = 530s) ...
Presolve removed 1813181 rows and 1288129 columns (presolve time = 535s) ...
Presolve removed 1813181 rows and 1288129 columns (presolve time = 540s) ...
Presolve removed 1813181 rows and 1288129 columns (presolve time = 545s) ...
Presolve removed 1813181 rows and 1288129 columns (presolve time = 550s) ...
Presolve removed 1813181 rows and 1288129 columns (presolve time = 555s) ...
Presolve removed 1813181 rows and 1288129 columns (presolve time = 560s) ...
Presolve removed 1813181 rows and 1288129 columns (presolve time = 565s) ...
Presolve removed 1813209 rows and 1288129 columns (presolve time = 570s) ...
Presolve removed 1813253 rows and 1288129 columns (presolve time = 575s) ...
Presolve removed 1813253 rows and 1288129 columns (presolve time = 580s) ...
Presolve removed 1813253 rows and 1288129 columns (presolve time = 585s) ...
Presolve removed 1813253 rows and 1288129 columns (presolve time = 590s) ...
Presolve removed 1813253 rows and 1288129 columns (presolve time = 595s) ...
Presolve removed 1813253 rows and 1288129 columns (presolve time = 601s) ...
Presolve removed 1813253 rows and 1288129 columns (presolve time = 605s) ...
Presolve removed 1813253 rows and 1288129 columns (presolve time = 610s) ...
Presolve removed 1813253 rows and 1288129 columns (presolve time = 616s) ...
Presolve removed 1813253 rows and 1288129 columns (presolve time = 620s) ...
Presolve removed 1813253 rows and 1288129 columns (presolve time = 625s) ...
Presolve removed 1813253 rows and 1288129 columns (presolve time = 630s) ...
Presolve removed 1813253 rows and 1288129 columns (presolve time = 635s) ...
Presolve removed 1813253 rows and 1288129 columns (presolve time = 641s) ...
Presolve removed 1813253 rows and 1288129 columns (presolve time = 645s) ...
Presolve removed 1813253 rows and 1288129 columns (presolve time = 650s) ...
Presolve removed 1813253 rows and 1288129 columns (presolve time = 655s) ...
Presolve removed 1813253 rows and 1288129 columns (presolve time = 660s) ...
Presolve removed 1813253 rows and 1288129 columns (presolve time = 666s) ...
Presolve removed 1813253 rows and 1288129 columns (presolve time = 671s) ...
Presolve removed 1813253 rows and 1288129 columns (presolve time = 675s) ...
Presolve removed 1813253 rows and 1288129 columns (presolve time = 680s) ...
Presolve removed 1813253 rows and 1288129 columns (presolve time = 686s) ...
Presolve removed 1813253 rows and 1288129 columns (presolve time = 691s) ...
Presolve removed 1813253 rows and 1288129 columns (presolve time = 695s) ...
Presolve removed 1813253 rows and 1288129 columns (presolve time = 701s) ...
Presolve removed 1813253 rows and 1288129 columns (presolve time = 705s) ...
Presolve removed 1813253 rows and 1288129 columns (presolve time = 710s) ...
Presolve removed 1813253 rows and 1288129 columns (presolve time = 715s) ...
Presolve removed 1813253 rows and 1288129 columns (presolve time = 721s) ...
Presolve removed 1813253 rows and 1288129 columns (presolve time = 725s) ...
Presolve removed 1813253 rows and 1288129 columns (presolve time = 730s) ...
Presolve removed 1813253 rows and 1288129 columns (presolve time = 736s) ...
Presolve removed 1813253 rows and 1288129 columns (presolve time = 740s) ...
Presolve removed 1813253 rows and 1288129 columns (presolve time = 745s) ...
Presolve removed 1813253 rows and 1288129 columns (presolve time = 750s) ...
Presolve removed 1813253 rows and 1288129 columns (presolve time = 755s) ...
Presolve removed 1813253 rows and 1288129 columns (presolve time = 761s) ...
Presolve removed 1813253 rows and 1288129 columns (presolve time = 766s) ...
Presolve removed 1813253 rows and 1288129 columns (presolve time = 771s) ...
Presolve removed 1813253 rows and 1288129 columns (presolve time = 775s) ...
Presolve removed 1813253 rows and 1288129 columns (presolve time = 780s) ...
Presolve removed 1813253 rows and 1288129 columns (presolve time = 786s) ...
Presolve removed 1813253 rows and 1288129 columns (presolve time = 790s) ...
Presolve removed 1813253 rows and 1288129 columns (presolve time = 795s) ...
Presolve removed 1813253 rows and 1288129 columns (presolve time = 800s) ...
Presolve removed 1813253 rows and 1288129 columns (presolve time = 805s) ...
Presolve removed 1813253 rows and 1318345 columns (presolve time = 811s) ...
Presolve removed 1813253 rows and 1318345 columns (presolve time = 817s) ...
Presolve removed 2219879 rows and 1318345 columns (presolve time = 820s) ...
Presolve removed 2219879 rows and 1318345 columns (presolve time = 825s) ...
Presolve removed 2219879 rows and 1318345 columns (presolve time = 835s) ...
Presolve removed 2219879 rows and 1318345 columns (presolve time = 843s) ...
Presolve removed 2219879 rows and 1318345 columns (presolve time = 846s) ...
Presolve removed 3198055 rows and 1318345 columns (presolve time = 861s) ...
Presolve removed 3198055 rows and 1318345 columns (presolve time = 870s) ...
Presolve removed 3198055 rows and 1318348 columns (presolve time = 870s) ...
Presolve removed 3198055 rows and 1318348 columns (presolve time = 875s) ...
Presolve removed 3198055 rows and 1318348 columns (presolve time = 893s) ...
Presolve removed 3199707 rows and 1320000 columns (presolve time = 899s) ...
Presolve removed 3209525 rows and 1329818 columns (presolve time = 906s) ...
Presolve removed 3209525 rows and 1329818 columns (presolve time = 913s) ...
Presolve removed 3209818 rows and 1329865 columns (presolve time = 915s) ...
Presolve removed 3209818 rows and 1329865 columns (presolve time = 921s) ...
Presolve removed 3209818 rows and 1329865 columns (presolve time = 925s) ...
Presolve removed 3209818 rows and 1329865 columns (presolve time = 930s) ...
Presolve removed 3209818 rows and 1329865 columns (presolve time = 935s) ...
Presolve removed 3209818 rows and 1329865 columns (presolve time = 940s) ...
Presolve removed 3209818 rows and 1329865 columns (presolve time = 945s) ...
Presolve removed 3209984 rows and 1329865 columns (presolve time = 950s) ...
Presolve removed 3209984 rows and 1329865 columns (presolve time = 955s) ...
Presolve removed 3209984 rows and 1329865 columns (presolve time = 960s) ...
Presolve removed 3209984 rows and 1329865 columns (presolve time = 965s) ...
Presolve removed 3209984 rows and 1329865 columns (presolve time = 971s) ...
Presolve removed 3209984 rows and 1329865 columns (presolve time = 975s) ...
Presolve removed 3209984 rows and 1329865 columns (presolve time = 980s) ...
Presolve removed 3209984 rows and 1329865 columns (presolve time = 986s) ...
Presolve removed 3209984 rows and 1329865 columns (presolve time = 990s) ...
Presolve removed 3209984 rows and 1329865 columns (presolve time = 995s) ...
Presolve removed 3209984 rows and 1329865 columns (presolve time = 1001s) ...
Presolve removed 3209984 rows and 1329865 columns (presolve time = 1005s) ...
Presolve removed 3209984 rows and 1329865 columns (presolve time = 1010s) ...
Presolve removed 3209984 rows and 1329865 columns (presolve time = 1015s) ...
Presolve removed 3209984 rows and 1329865 columns (presolve time = 1020s) ...
Presolve removed 3209984 rows and 1329865 columns (presolve time = 1025s) ...
Presolve removed 3209984 rows and 1329865 columns (presolve time = 1030s) ...
Presolve removed 3209984 rows and 1329865 columns (presolve time = 1035s) ...
Presolve removed 3209984 rows and 1329865 columns (presolve time = 1040s) ...
Presolve removed 3209984 rows and 1329865 columns (presolve time = 1045s) ...
Presolve removed 3209984 rows and 1329865 columns (presolve time = 1050s) ...
Presolve removed 3209984 rows and 1329865 columns (presolve time = 1055s) ...
Presolve removed 3209984 rows and 1329865 columns (presolve time = 1060s) ...
Presolve removed 3209984 rows and 1329865 columns (presolve time = 1065s) ...
Presolve removed 3209984 rows and 1329865 columns (presolve time = 1071s) ...
Presolve removed 3209984 rows and 1329865 columns (presolve time = 1075s) ...
Presolve removed 3209984 rows and 1329865 columns (presolve time = 1081s) ...
Presolve removed 3209984 rows and 1329865 columns (presolve time = 1085s) ...
Presolve removed 3209984 rows and 1329865 columns (presolve time = 1090s) ...
Presolve removed 3209984 rows and 1329865 columns (presolve time = 1095s) ...
Presolve removed 3209984 rows and 1329865 columns (presolve time = 1100s) ...
Presolve removed 3209984 rows and 1329865 columns (presolve time = 1105s) ...
Presolve removed 3209984 rows and 1329865 columns (presolve time = 1110s) ...
Presolve removed 3935455 rows and 1329867 columns (presolve time = 1115s) ...
Presolve removed 3986526 rows and 1369782 columns (presolve time = 1120s) ...
Presolve removed 3986526 rows and 1369782 columns (presolve time = 1125s) ...
Presolve removed 3988777 rows and 1369782 columns (presolve time = 1130s) ...
Presolve removed 3989206 rows and 1369782 columns (presolve time = 1135s) ...
Presolve removed 3989206 rows and 1369782 columns (presolve time = 1140s) ...
Presolve removed 4251086 rows and 1369782 columns (presolve time = 1145s) ...
Presolve removed 4324702 rows and 1369782 columns (presolve time = 1151s) ...
Presolve removed 4394507 rows and 1369782 columns (presolve time = 1155s) ...
Presolve removed 4471343 rows and 1369782 columns (presolve time = 1161s) ...
Presolve removed 4537866 rows and 1369782 columns (presolve time = 1165s) ...
Presolve removed 4617986 rows and 1369782 columns (presolve time = 1171s) ...
Presolve removed 5351513 rows and 1371499 columns (presolve time = 1175s) ...
Presolve removed 5403460 rows and 1411308 columns (presolve time = 1180s) ...
Presolve removed 5403460 rows and 1411308 columns (presolve time = 1185s) ...
Presolve removed 5406300 rows and 1411308 columns (presolve time = 1190s) ...
Presolve removed 5406880 rows and 1411308 columns (presolve time = 1195s) ...
Presolve removed 5409035 rows and 1411308 columns (presolve time = 1200s) ...
Presolve removed 5691324 rows and 1411308 columns (presolve time = 1205s) ...
Presolve removed 5752536 rows and 1411308 columns (presolve time = 1210s) ...
Presolve removed 5824853 rows and 1411308 columns (presolve time = 1215s) ...
Presolve removed 5902510 rows and 1411308 columns (presolve time = 1220s) ...
Presolve removed 5983658 rows and 1411308 columns (presolve time = 1225s) ...
Presolve removed 6059026 rows and 1411308 columns (presolve time = 1230s) ...
Presolve removed 6766436 rows and 1413050 columns (presolve time = 1235s) ...
Presolve removed 6820258 rows and 1452764 columns (presolve time = 1240s) ...
Presolve removed 6824208 rows and 1452764 columns (presolve time = 1245s) ...
Presolve removed 6824208 rows and 1452764 columns (presolve time = 1250s) ...
Presolve removed 7439500 rows and 1452764 columns (presolve time = 1255s) ...
Presolve removed 8181239 rows and 1454528 columns (presolve time = 1260s) ...
Presolve removed 8236239 rows and 1494137 columns (presolve time = 1265s) ...
Presolve removed 8240883 rows and 1494137 columns (presolve time = 1270s) ...
Presolve removed 8469631 rows and 1494137 columns (presolve time = 1275s) ...
Presolve removed 8581992 rows and 1494137 columns (presolve time = 1280s) ...
Presolve removed 8706582 rows and 1494137 columns (presolve time = 1285s) ...
Presolve removed 8803069 rows and 1494137 columns (presolve time = 1290s) ...
Presolve removed 9596651 rows and 1495922 columns (presolve time = 1295s) ...
Presolve removed 9652428 rows and 1535452 columns (presolve time = 1300s) ...
Presolve removed 9652428 rows and 1535452 columns (presolve time = 1305s) ...
Presolve removed 9657747 rows and 1535452 columns (presolve time = 1310s) ...
Presolve removed 9915268 rows and 1535452 columns (presolve time = 1315s) ...
Presolve removed 9982001 rows and 1535452 columns (presolve time = 1320s) ...
Presolve removed 10059986 rows and 1535452 columns (presolve time = 1325s) ...
Presolve removed 10120520 rows and 1535452 columns (presolve time = 1330s) ...
Presolve removed 10181129 rows and 1535452 columns (presolve time = 1336s) ...
Presolve removed 10242943 rows and 1535452 columns (presolve time = 1341s) ...
Presolve removed 10304427 rows and 1535452 columns (presolve time = 1346s) ...
Presolve removed 11011721 rows and 1537260 columns (presolve time = 1350s) ...
Presolve removed 11051118 rows and 1576657 columns (presolve time = 1355s) ...
Presolve removed 11068113 rows and 1576657 columns (presolve time = 1360s) ...
Presolve removed 11318904 rows and 1576657 columns (presolve time = 1365s) ...
Presolve removed 11381693 rows and 1576657 columns (presolve time = 1371s) ...
Presolve removed 11436217 rows and 1576657 columns (presolve time = 1376s) ...
Presolve removed 11483974 rows and 1576657 columns (presolve time = 1380s) ...
Presolve removed 11545349 rows and 1576657 columns (presolve time = 1386s) ...
Presolve removed 11605344 rows and 1576657 columns (presolve time = 1391s) ...
Presolve removed 11670138 rows and 1576657 columns (presolve time = 1397s) ...
Presolve removed 11718817 rows and 1576657 columns (presolve time = 1401s) ...
Presolve removed 12116110 rows and 1598494 columns (presolve time = 1405s) ...
Presolve removed 12292538 rows and 1598494 columns (presolve time = 1410s) ...
Presolve removed 12367072 rows and 1598494 columns (presolve time = 1415s) ...
Presolve removed 12450838 rows and 1599341 columns (presolve time = 1421s) ...
Presolve removed 12457351 rows and 1599857 columns (presolve time = 1425s) ...
Presolve removed 12457351 rows and 1599857 columns
Presolve time: 1425.79s
Presolved: 6884 rows, 3272 columns, 17009 nonzeros
Variable types: 0 continuous, 3272 integer (954 binary)
Found heuristic solution: objective 17083.500000
Found heuristic solution: objective 32046.990000

Root simplex log...

Iteration    Objective       Primal Inf.    Dual Inf.      Time
       0    1.0599764e+05   1.006250e+03   0.000000e+00   1428s
    3096    7.7333827e+04   0.000000e+00   0.000000e+00   1428s

Root relaxation: objective 7.733383e+04, 3096 iterations, 0.02 seconds (0.02 work units)

    Nodes    |    Current Node    |     Objective Bounds      |     Work
 Expl Unexpl |  Obj  Depth IntInf | Incumbent    BestBd   Gap | It/Node Time

     0     0 77333.8267    0  272 32046.9900 77333.8267   141%     - 1428s
H    0     0                    68192.980000 77333.8267  13.4%     - 1428s
H    0     0                    71747.340000 77333.8267  7.79%     - 1428s
H    0     0                    72216.730000 77333.8267  7.09%     - 1428s
H    0     0                    72238.730000 77333.8267  7.05%     - 1428s
H    0     0                    73680.730000 77333.8267  4.96%     - 1428s
H    0     0                    75900.680000 77333.8267  1.89%     - 1428s
H    0     0                    76039.840000 76648.7086  0.80%     - 1428s
     0     0 76648.7086    0   58 76039.8400 76648.7086  0.80%     - 1428s
H    0     0                    76076.840000 76648.7086  0.75%     - 1428s
H    0     0                    76115.840000 76648.7086  0.70%     - 1428s
H    0     0                    76314.680000 76648.7086  0.44%     - 1428s
     0     0 76599.4879    0  223 76314.6800 76599.4879  0.37%     - 1428s
     0     0 76599.4879    0  137 76314.6800 76599.4879  0.37%     - 1428s
     0     0 76599.4879    0   13 76314.6800 76599.4879  0.37%     - 1428s
     0     0 76599.4879    0   50 76314.6800 76599.4879  0.37%     - 1428s
     0     0 76599.4879    0   81 76314.6800 76599.4879  0.37%     - 1428s
     0     0 76591.6105    0  141 76314.6800 76591.6105  0.36%     - 1428s
H    0     0                    76427.680000 76591.6105  0.21%     - 1428s
     0     0 76591.1159    0  112 76427.6800 76591.1159  0.21%     - 1428s
H    0     0                    76459.680000 76591.1159  0.17%     - 1428s
     0     0 76579.8321    0  168 76459.6800 76579.8321  0.16%     - 1428s
     0     0 76579.8321    0   36 76459.6800 76579.8321  0.16%     - 1428s
     0     0 76579.8321    0   32 76459.6800 76579.8321  0.16%     - 1428s
     0     0 76579.8321    0   61 76459.6800 76579.8321  0.16%     - 1428s
     0     0 76579.8321    0    5 76459.6800 76579.8321  0.16%     - 1428s
H    0     0                    76461.680000 76571.0550  0.14%     - 1428s
     0     0 76550.1388    0   38 76461.6800 76550.1388  0.12%     - 1428s
     0     0 76546.8982    0   59 76461.6800 76546.8982  0.11%     - 1428s
H    0     0                    76475.680000 76546.8982  0.09%     - 1428s

Cutting planes:
  Learned: 1
  Gomory: 1
  Implied bound: 1
  MIR: 6
  StrongCG: 1
  Flow cover: 1
  RLT: 1

Explored 1 nodes (5900 simplex iterations) in 1429.93 seconds (213.47 work units)
Thread count was 24 (of 24 available processors)

Solution count 10: 76475.7 76461.7 76459.7 ... 73680.7

Optimal solution found (tolerance 1.00e-04)
Best objective 7.647568000000e+04, best bound 7.648113047619e+04, gap 0.0071%
Valor da função objetivo:  76475.68000000001

Tempo para criar o modelo:  437.8823547363281
